(set-logic QF_BV)

(declare-const __ESBMC_ptr_obj_start_0 (_ BitVec 64))

(declare-const __ESBMC_ptr_obj_end_0 (_ BitVec 64))

(declare-const __ESBMC_ptr_obj_start_1 (_ BitVec 64))

(declare-const __ESBMC_ptr_obj_end_1 (_ BitVec 64))

(declare-const |smt_conv::__ESBMC_ptr_addr_range_0..start0| (_ BitVec 64))

(declare-const |smt_conv::__ESBMC_ptr_addr_range_0..end0| (_ BitVec 64))

(declare-const |smt_conv::__ESBMC_ptr_addr_range_1..start0| (_ BitVec 64))

(declare-const |smt_conv::__ESBMC_ptr_addr_range_1..end0| (_ BitVec 64))

(declare-const |smt_conv::smt_conv::collate_array_vals::3..start0| (_ BitVec 64))

(declare-const |smt_conv::smt_conv::collate_array_vals::3..end0| (_ BitVec 64))

(declare-const |smt_conv::smt_conv::collate_array_vals::4..start0| (_ BitVec 64))

(declare-const |smt_conv::smt_conv::collate_array_vals::4..end0| (_ BitVec 64))

(declare-const |smt_conv::smt_conv::collate_array_vals::7..start0| (_ BitVec 64))

(declare-const |smt_conv::smt_conv::collate_array_vals::7..end0| (_ BitVec 64))

(declare-const |c:@x&0#2| (_ BitVec 32))

(declare-const |nondet$symex::nondet661| (_ BitVec 32))

(declare-const |goto_symex::guard?0!0&0#1| (_ BitVec 1))

(declare-const |c:@F@main::$tmp::return_value$___VERIFIER_nondet_bool$1?1!0&0#1| (_ BitVec 1))

(declare-const |nondet$symex::nondet662| (_ BitVec 1))

(declare-const |c:trex02-1.c@542@F@main@c?1!0&0#1| (_ BitVec 1))

(declare-const |c:@x&0#3| (_ BitVec 32))

(declare-const |c:@x&0#4| (_ BitVec 32))

(declare-const |c:@x&0#5| (_ BitVec 32))

(declare-const |c:@x&0#6| (_ BitVec 32))

(declare-const |goto_symex::guard?0!0&0#2| (_ BitVec 1))

(declare-const |c:@F@main::$tmp::return_value$___VERIFIER_nondet_bool$1?2!0&0#1| (_ BitVec 1))

(declare-const |nondet$symex::nondet663| (_ BitVec 1))

(declare-const |c:trex02-1.c@542@F@main@c?2!0&0#1| (_ BitVec 1))

(declare-const |c:@x&0#7| (_ BitVec 32))

(declare-const |c:@x&0#8| (_ BitVec 32))

(declare-const |c:@x&0#9| (_ BitVec 32))

(declare-const |c:@x&0#10| (_ BitVec 32))

(declare-const |goto_symex::guard?0!0&0#3| (_ BitVec 1))

(declare-const |c:@F@main::$tmp::return_value$___VERIFIER_nondet_bool$1?3!0&0#1| (_ BitVec 1))

(declare-const |nondet$symex::nondet664| (_ BitVec 1))

(declare-const |c:trex02-1.c@542@F@main@c?3!0&0#1| (_ BitVec 1))

(declare-const |c:@x&0#11| (_ BitVec 32))

(declare-const |c:@x&0#12| (_ BitVec 32))

(declare-const |c:@x&0#13| (_ BitVec 32))

(declare-const |c:@x&0#14| (_ BitVec 32))

(declare-const |goto_symex::guard?0!0&0#4| (_ BitVec 1))

(declare-const |c:@F@main::$tmp::return_value$___VERIFIER_nondet_bool$1?4!0&0#1| (_ BitVec 1))

(declare-const |nondet$symex::nondet665| (_ BitVec 1))

(declare-const |c:trex02-1.c@542@F@main@c?4!0&0#1| (_ BitVec 1))

(declare-const |c:@x&0#15| (_ BitVec 32))

(declare-const |c:@x&0#16| (_ BitVec 32))

(declare-const |c:@x&0#17| (_ BitVec 32))

(declare-const |c:@x&0#18| (_ BitVec 32))

(declare-const |goto_symex::guard?0!0&0#5| (_ BitVec 1))

(declare-const |c:@F@main::$tmp::return_value$___VERIFIER_nondet_bool$1?5!0&0#1| (_ BitVec 1))

(declare-const |nondet$symex::nondet666| (_ BitVec 1))

(declare-const |c:trex02-1.c@542@F@main@c?5!0&0#1| (_ BitVec 1))

(declare-const |c:@x&0#19| (_ BitVec 32))

(declare-const |c:@x&0#20| (_ BitVec 32))

(declare-const |c:@x&0#21| (_ BitVec 32))

(declare-const |c:@x&0#22| (_ BitVec 32))

(declare-const |goto_symex::guard?0!0&0#6| (_ BitVec 1))

(declare-const |c:@F@main::$tmp::return_value$___VERIFIER_nondet_bool$1?6!0&0#1| (_ BitVec 1))

(declare-const |nondet$symex::nondet667| (_ BitVec 1))

(declare-const |c:trex02-1.c@542@F@main@c?6!0&0#1| (_ BitVec 1))

(declare-const |c:@x&0#23| (_ BitVec 32))

(declare-const |c:@x&0#24| (_ BitVec 32))

(declare-const |c:@x&0#25| (_ BitVec 32))

(declare-const |c:@x&0#26| (_ BitVec 32))

(declare-const |goto_symex::guard?0!0&0#7| (_ BitVec 1))

(declare-const |c:@F@main::$tmp::return_value$___VERIFIER_nondet_bool$1?7!0&0#1| (_ BitVec 1))

(declare-const |nondet$symex::nondet668| (_ BitVec 1))

(declare-const |c:trex02-1.c@542@F@main@c?7!0&0#1| (_ BitVec 1))

(declare-const |c:@x&0#27| (_ BitVec 32))

(declare-const |c:@x&0#28| (_ BitVec 32))

(declare-const |c:@x&0#29| (_ BitVec 32))

(declare-const |c:@x&0#30| (_ BitVec 32))

(declare-const |goto_symex::guard?0!0&0#8| (_ BitVec 1))

(declare-const |c:@F@main::$tmp::return_value$___VERIFIER_nondet_bool$1?8!0&0#1| (_ BitVec 1))

(declare-const |nondet$symex::nondet669| (_ BitVec 1))

(declare-const |c:trex02-1.c@542@F@main@c?8!0&0#1| (_ BitVec 1))

(declare-const |c:@x&0#31| (_ BitVec 32))

(declare-const |c:@x&0#32| (_ BitVec 32))

(declare-const |c:@x&0#33| (_ BitVec 32))

(declare-const |c:@x&0#34| (_ BitVec 32))

(declare-const |goto_symex::guard?0!0&0#9| (_ BitVec 1))

(declare-const |c:@F@main::$tmp::return_value$___VERIFIER_nondet_bool$1?9!0&0#1| (_ BitVec 1))

(declare-const |nondet$symex::nondet670| (_ BitVec 1))

(declare-const |c:trex02-1.c@542@F@main@c?9!0&0#1| (_ BitVec 1))

(declare-const |c:@x&0#35| (_ BitVec 32))

(declare-const |c:@x&0#36| (_ BitVec 32))

(declare-const |c:@x&0#37| (_ BitVec 32))

(declare-const |c:@x&0#38| (_ BitVec 32))

(declare-const |goto_symex::guard?0!0&0#10| (_ BitVec 1))

(declare-const |c:@F@main::$tmp::return_value$___VERIFIER_nondet_bool$1?10!0&0#1| (_ BitVec 1))

(declare-const |nondet$symex::nondet671| (_ BitVec 1))

(declare-const |c:trex02-1.c@542@F@main@c?10!0&0#1| (_ BitVec 1))

(declare-const |c:@x&0#39| (_ BitVec 32))

(declare-const |c:@x&0#40| (_ BitVec 32))

(declare-const |c:@x&0#41| (_ BitVec 32))

(declare-const |c:@x&0#42| (_ BitVec 32))

(declare-const |goto_symex::guard?0!0&0#11| (_ BitVec 1))

(declare-const |c:@F@main::$tmp::return_value$___VERIFIER_nondet_bool$1?11!0&0#1| (_ BitVec 1))

(declare-const |nondet$symex::nondet672| (_ BitVec 1))

(declare-const |c:trex02-1.c@542@F@main@c?11!0&0#1| (_ BitVec 1))

(declare-const |c:@x&0#43| (_ BitVec 32))

(declare-const |c:@x&0#44| (_ BitVec 32))

(declare-const |c:@x&0#45| (_ BitVec 32))

(declare-const |c:@x&0#46| (_ BitVec 32))

(declare-const |goto_symex::guard?0!0&0#12| (_ BitVec 1))

(declare-const |c:@F@main::$tmp::return_value$___VERIFIER_nondet_bool$1?12!0&0#1| (_ BitVec 1))

(declare-const |nondet$symex::nondet673| (_ BitVec 1))

(declare-const |c:trex02-1.c@542@F@main@c?12!0&0#1| (_ BitVec 1))

(declare-const |c:@x&0#47| (_ BitVec 32))

(declare-const |c:@x&0#48| (_ BitVec 32))

(declare-const |c:@x&0#49| (_ BitVec 32))

(declare-const |c:@x&0#50| (_ BitVec 32))

(declare-const |goto_symex::guard?0!0&0#13| (_ BitVec 1))

(declare-const |c:@F@main::$tmp::return_value$___VERIFIER_nondet_bool$1?13!0&0#1| (_ BitVec 1))

(declare-const |nondet$symex::nondet674| (_ BitVec 1))

(declare-const |c:trex02-1.c@542@F@main@c?13!0&0#1| (_ BitVec 1))

(declare-const |c:@x&0#51| (_ BitVec 32))

(declare-const |c:@x&0#52| (_ BitVec 32))

(declare-const |c:@x&0#53| (_ BitVec 32))

(declare-const |c:@x&0#54| (_ BitVec 32))

(declare-const |goto_symex::guard?0!0&0#14| (_ BitVec 1))

(declare-const |c:@F@main::$tmp::return_value$___VERIFIER_nondet_bool$1?14!0&0#1| (_ BitVec 1))

(declare-const |nondet$symex::nondet675| (_ BitVec 1))

(declare-const |c:trex02-1.c@542@F@main@c?14!0&0#1| (_ BitVec 1))

(declare-const |c:@x&0#55| (_ BitVec 32))

(declare-const |c:@x&0#56| (_ BitVec 32))

(declare-const |c:@x&0#57| (_ BitVec 32))

(declare-const |c:@x&0#58| (_ BitVec 32))

(declare-const |goto_symex::guard?0!0&0#15| (_ BitVec 1))

(declare-const |c:@F@main::$tmp::return_value$___VERIFIER_nondet_bool$1?15!0&0#1| (_ BitVec 1))

(declare-const |nondet$symex::nondet676| (_ BitVec 1))

(declare-const |c:trex02-1.c@542@F@main@c?15!0&0#1| (_ BitVec 1))

(declare-const |c:@x&0#59| (_ BitVec 32))

(declare-const |c:@x&0#60| (_ BitVec 32))

(declare-const |c:@x&0#61| (_ BitVec 32))

(declare-const |c:@x&0#62| (_ BitVec 32))

(declare-const |goto_symex::guard?0!0&0#16| (_ BitVec 1))

(declare-const |c:@F@main::$tmp::return_value$___VERIFIER_nondet_bool$1?16!0&0#1| (_ BitVec 1))

(declare-const |nondet$symex::nondet677| (_ BitVec 1))

(declare-const |c:trex02-1.c@542@F@main@c?16!0&0#1| (_ BitVec 1))

(declare-const |c:@x&0#63| (_ BitVec 32))

(declare-const |c:@x&0#64| (_ BitVec 32))

(declare-const |c:@x&0#65| (_ BitVec 32))

(declare-const |c:@x&0#66| (_ BitVec 32))

(declare-const |goto_symex::guard?0!0&0#17| (_ BitVec 1))

(declare-const |c:@F@main::$tmp::return_value$___VERIFIER_nondet_bool$1?17!0&0#1| (_ BitVec 1))

(declare-const |nondet$symex::nondet678| (_ BitVec 1))

(declare-const |c:trex02-1.c@542@F@main@c?17!0&0#1| (_ BitVec 1))

(declare-const |c:@x&0#67| (_ BitVec 32))

(declare-const |c:@x&0#68| (_ BitVec 32))

(declare-const |c:@x&0#69| (_ BitVec 32))

(declare-const |c:@x&0#70| (_ BitVec 32))

(declare-const |goto_symex::guard?0!0&0#18| (_ BitVec 1))

(declare-const |c:@F@main::$tmp::return_value$___VERIFIER_nondet_bool$1?18!0&0#1| (_ BitVec 1))

(declare-const |nondet$symex::nondet679| (_ BitVec 1))

(declare-const |c:trex02-1.c@542@F@main@c?18!0&0#1| (_ BitVec 1))

(declare-const |c:@x&0#71| (_ BitVec 32))

(declare-const |c:@x&0#72| (_ BitVec 32))

(declare-const |c:@x&0#73| (_ BitVec 32))

(declare-const |c:@x&0#74| (_ BitVec 32))

(declare-const |goto_symex::guard?0!0&0#19| (_ BitVec 1))

(declare-const |c:@F@main::$tmp::return_value$___VERIFIER_nondet_bool$1?19!0&0#1| (_ BitVec 1))

(declare-const |nondet$symex::nondet680| (_ BitVec 1))

(declare-const |c:trex02-1.c@542@F@main@c?19!0&0#1| (_ BitVec 1))

(declare-const |c:@x&0#75| (_ BitVec 32))

(declare-const |c:@x&0#76| (_ BitVec 32))

(declare-const |c:@x&0#77| (_ BitVec 32))

(declare-const |c:@x&0#78| (_ BitVec 32))

(declare-const |goto_symex::guard?0!0&0#20| (_ BitVec 1))

(declare-const |c:@x&0#83| (_ BitVec 32))

(declare-const |c:@x&0#84| (_ BitVec 32))

(declare-const |c:@x&0#85| (_ BitVec 32))

(declare-const |c:@x&0#86| (_ BitVec 32))

(declare-const |c:@x&0#87| (_ BitVec 32))

(declare-const |c:@x&0#88| (_ BitVec 32))

(declare-const |c:@x&0#89| (_ BitVec 32))

(declare-const |c:@x&0#90| (_ BitVec 32))

(declare-const |c:@x&0#91| (_ BitVec 32))

(declare-const |c:@x&0#92| (_ BitVec 32))

(declare-const |c:@x&0#93| (_ BitVec 32))

(declare-const |c:@x&0#94| (_ BitVec 32))

(declare-const |c:@x&0#95| (_ BitVec 32))

(declare-const |c:@x&0#96| (_ BitVec 32))

(declare-const |c:@x&0#97| (_ BitVec 32))

(declare-const |c:@x&0#98| (_ BitVec 32))

(declare-const |c:@x&0#99| (_ BitVec 32))

(declare-const |c:@x&0#100| (_ BitVec 32))

(declare-const |c:@x&0#101| (_ BitVec 32))

(declare-const |c:@x&0#102| (_ BitVec 32))

(declare-const |c:trex02-1.c@279@F@__VERIFIER_assert@cond?1!0&0#1| (_ BitVec 32))

(declare-const |goto_symex::guard?0!0&0#21| (_ BitVec 1))

(declare-const |execution_statet::guard_exec?0!0| (_ BitVec 1))

(assert 

 (= __ESBMC_ptr_obj_start_0 #b0000000000000000000000000000000000000000000000000000000000000000))

(assert 

 (= #b0000000000000000000000000000000000000000000000000000000000000000 __ESBMC_ptr_obj_end_0))

(assert 

 (= __ESBMC_ptr_obj_start_1 #b0000000000000000000000000000000000000000000000000000000000000001))

(assert 

 (= #b1111111111111111111111111111111111111111111111111111111111111111 __ESBMC_ptr_obj_end_1))

(assert 

 (= __ESBMC_ptr_obj_end_0 |smt_conv::__ESBMC_ptr_addr_range_0..end0|))

(assert 

 (= __ESBMC_ptr_obj_start_0 |smt_conv::__ESBMC_ptr_addr_range_0..start0|))

(assert 

 (= __ESBMC_ptr_obj_end_1 |smt_conv::__ESBMC_ptr_addr_range_1..end0|))

(assert 

 (= __ESBMC_ptr_obj_start_1 |smt_conv::__ESBMC_ptr_addr_range_1..start0|))

(assert 

 (= |smt_conv::smt_conv::collate_array_vals::3..end0| |smt_conv::smt_conv::collate_array_vals::4..end0|))

(assert 

 (= |smt_conv::smt_conv::collate_array_vals::3..start0| |smt_conv::smt_conv::collate_array_vals::4..start0|))

(assert 

 (= __ESBMC_ptr_obj_end_0 |smt_conv::smt_conv::collate_array_vals::7..end0|))

(assert 

 (= __ESBMC_ptr_obj_start_0 |smt_conv::smt_conv::collate_array_vals::7..start0|))

(assert 

 (= |c:@x&0#2| |nondet$symex::nondet661|))

(assert 

 (= |goto_symex::guard?0!0&0#1| 

  (ite 

   (bvslt #b00000000000000000000000000000000 |c:@x&0#2|) #b1 #b0)))

(assert 

 (= |c:@F@main::$tmp::return_value$___VERIFIER_nondet_bool$1?1!0&0#1| |nondet$symex::nondet662|))

(assert 

 (= |c:@F@main::$tmp::return_value$___VERIFIER_nondet_bool$1?1!0&0#1| |c:trex02-1.c@542@F@main@c?1!0&0#1|))

(assert 

 (= |c:@x&0#3| 

  (bvadd #b11111111111111111111111111111111 |c:@x&0#2|)))

(assert 

 (= |c:@x&0#2| |c:@x&0#4|))

(assert 

 (= |c:@x&0#5| 

  (bvadd #b11111111111111111111111111111111 |c:@x&0#4|)))

(assert 

 (= |c:@x&0#6| 

  (ite 

   (= #b1 |c:trex02-1.c@542@F@main@c?1!0&0#1|) |c:@x&0#3| |c:@x&0#5|)))

(assert 

 (= |goto_symex::guard?0!0&0#2| 

  (ite 

   (bvslt #b00000000000000000000000000000000 |c:@x&0#6|) #b1 #b0)))

(assert 

 (= |c:@F@main::$tmp::return_value$___VERIFIER_nondet_bool$1?2!0&0#1| |nondet$symex::nondet663|))

(assert 

 (= |c:@F@main::$tmp::return_value$___VERIFIER_nondet_bool$1?2!0&0#1| |c:trex02-1.c@542@F@main@c?2!0&0#1|))

(assert 

 (= |c:@x&0#7| 

  (bvadd #b11111111111111111111111111111111 |c:@x&0#6|)))

(assert 

 (= |c:@x&0#6| |c:@x&0#8|))

(assert 

 (= |c:@x&0#9| 

  (bvadd #b11111111111111111111111111111111 |c:@x&0#8|)))

(assert 

 (= |c:@x&0#10| 

  (ite 

   (= #b1 |c:trex02-1.c@542@F@main@c?2!0&0#1|) |c:@x&0#7| |c:@x&0#9|)))

(assert 

 (= |goto_symex::guard?0!0&0#3| 

  (ite 

   (bvslt #b00000000000000000000000000000000 |c:@x&0#10|) #b1 #b0)))

(assert 

 (= |c:@F@main::$tmp::return_value$___VERIFIER_nondet_bool$1?3!0&0#1| |nondet$symex::nondet664|))

(assert 

 (= |c:@F@main::$tmp::return_value$___VERIFIER_nondet_bool$1?3!0&0#1| |c:trex02-1.c@542@F@main@c?3!0&0#1|))

(assert 

 (= |c:@x&0#11| 

  (bvadd #b11111111111111111111111111111111 |c:@x&0#10|)))

(assert 

 (= |c:@x&0#10| |c:@x&0#12|))

(assert 

 (= |c:@x&0#13| 

  (bvadd #b11111111111111111111111111111111 |c:@x&0#12|)))

(assert 

 (= |c:@x&0#14| 

  (ite 

   (= #b1 |c:trex02-1.c@542@F@main@c?3!0&0#1|) |c:@x&0#11| |c:@x&0#13|)))

(assert 

 (= |goto_symex::guard?0!0&0#4| 

  (ite 

   (bvslt #b00000000000000000000000000000000 |c:@x&0#14|) #b1 #b0)))

(assert 

 (= |c:@F@main::$tmp::return_value$___VERIFIER_nondet_bool$1?4!0&0#1| |nondet$symex::nondet665|))

(assert 

 (= |c:@F@main::$tmp::return_value$___VERIFIER_nondet_bool$1?4!0&0#1| |c:trex02-1.c@542@F@main@c?4!0&0#1|))

(assert 

 (= |c:@x&0#15| 

  (bvadd #b11111111111111111111111111111111 |c:@x&0#14|)))

(assert 

 (= |c:@x&0#14| |c:@x&0#16|))

(assert 

 (= |c:@x&0#17| 

  (bvadd #b11111111111111111111111111111111 |c:@x&0#16|)))

(assert 

 (= |c:@x&0#18| 

  (ite 

   (= #b1 |c:trex02-1.c@542@F@main@c?4!0&0#1|) |c:@x&0#15| |c:@x&0#17|)))

(assert 

 (= |goto_symex::guard?0!0&0#5| 

  (ite 

   (bvslt #b00000000000000000000000000000000 |c:@x&0#18|) #b1 #b0)))

(assert 

 (= |c:@F@main::$tmp::return_value$___VERIFIER_nondet_bool$1?5!0&0#1| |nondet$symex::nondet666|))

(assert 

 (= |c:@F@main::$tmp::return_value$___VERIFIER_nondet_bool$1?5!0&0#1| |c:trex02-1.c@542@F@main@c?5!0&0#1|))

(assert 

 (= |c:@x&0#19| 

  (bvadd #b11111111111111111111111111111111 |c:@x&0#18|)))

(assert 

 (= |c:@x&0#18| |c:@x&0#20|))

(assert 

 (= |c:@x&0#21| 

  (bvadd #b11111111111111111111111111111111 |c:@x&0#20|)))

(assert 

 (= |c:@x&0#22| 

  (ite 

   (= #b1 |c:trex02-1.c@542@F@main@c?5!0&0#1|) |c:@x&0#19| |c:@x&0#21|)))

(assert 

 (= |goto_symex::guard?0!0&0#6| 

  (ite 

   (bvslt #b00000000000000000000000000000000 |c:@x&0#22|) #b1 #b0)))

(assert 

 (= |c:@F@main::$tmp::return_value$___VERIFIER_nondet_bool$1?6!0&0#1| |nondet$symex::nondet667|))

(assert 

 (= |c:@F@main::$tmp::return_value$___VERIFIER_nondet_bool$1?6!0&0#1| |c:trex02-1.c@542@F@main@c?6!0&0#1|))

(assert 

 (= |c:@x&0#23| 

  (bvadd #b11111111111111111111111111111111 |c:@x&0#22|)))

(assert 

 (= |c:@x&0#22| |c:@x&0#24|))

(assert 

 (= |c:@x&0#25| 

  (bvadd #b11111111111111111111111111111111 |c:@x&0#24|)))

(assert 

 (= |c:@x&0#26| 

  (ite 

   (= #b1 |c:trex02-1.c@542@F@main@c?6!0&0#1|) |c:@x&0#23| |c:@x&0#25|)))

(assert 

 (= |goto_symex::guard?0!0&0#7| 

  (ite 

   (bvslt #b00000000000000000000000000000000 |c:@x&0#26|) #b1 #b0)))

(assert 

 (= |c:@F@main::$tmp::return_value$___VERIFIER_nondet_bool$1?7!0&0#1| |nondet$symex::nondet668|))

(assert 

 (= |c:@F@main::$tmp::return_value$___VERIFIER_nondet_bool$1?7!0&0#1| |c:trex02-1.c@542@F@main@c?7!0&0#1|))

(assert 

 (= |c:@x&0#27| 

  (bvadd #b11111111111111111111111111111111 |c:@x&0#26|)))

(assert 

 (= |c:@x&0#26| |c:@x&0#28|))

(assert 

 (= |c:@x&0#29| 

  (bvadd #b11111111111111111111111111111111 |c:@x&0#28|)))

(assert 

 (= |c:@x&0#30| 

  (ite 

   (= #b1 |c:trex02-1.c@542@F@main@c?7!0&0#1|) |c:@x&0#27| |c:@x&0#29|)))

(assert 

 (= |goto_symex::guard?0!0&0#8| 

  (ite 

   (bvslt #b00000000000000000000000000000000 |c:@x&0#30|) #b1 #b0)))

(assert 

 (= |c:@F@main::$tmp::return_value$___VERIFIER_nondet_bool$1?8!0&0#1| |nondet$symex::nondet669|))

(assert 

 (= |c:@F@main::$tmp::return_value$___VERIFIER_nondet_bool$1?8!0&0#1| |c:trex02-1.c@542@F@main@c?8!0&0#1|))

(assert 

 (= |c:@x&0#31| 

  (bvadd #b11111111111111111111111111111111 |c:@x&0#30|)))

(assert 

 (= |c:@x&0#30| |c:@x&0#32|))

(assert 

 (= |c:@x&0#33| 

  (bvadd #b11111111111111111111111111111111 |c:@x&0#32|)))

(assert 

 (= |c:@x&0#34| 

  (ite 

   (= #b1 |c:trex02-1.c@542@F@main@c?8!0&0#1|) |c:@x&0#31| |c:@x&0#33|)))

(assert 

 (= |goto_symex::guard?0!0&0#9| 

  (ite 

   (bvslt #b00000000000000000000000000000000 |c:@x&0#34|) #b1 #b0)))

(assert 

 (= |c:@F@main::$tmp::return_value$___VERIFIER_nondet_bool$1?9!0&0#1| |nondet$symex::nondet670|))

(assert 

 (= |c:@F@main::$tmp::return_value$___VERIFIER_nondet_bool$1?9!0&0#1| |c:trex02-1.c@542@F@main@c?9!0&0#1|))

(assert 

 (= |c:@x&0#35| 

  (bvadd #b11111111111111111111111111111111 |c:@x&0#34|)))

(assert 

 (= |c:@x&0#34| |c:@x&0#36|))

(assert 

 (= |c:@x&0#37| 

  (bvadd #b11111111111111111111111111111111 |c:@x&0#36|)))

(assert 

 (= |c:@x&0#38| 

  (ite 

   (= #b1 |c:trex02-1.c@542@F@main@c?9!0&0#1|) |c:@x&0#35| |c:@x&0#37|)))

(assert 

 (= |goto_symex::guard?0!0&0#10| 

  (ite 

   (bvslt #b00000000000000000000000000000000 |c:@x&0#38|) #b1 #b0)))

(assert 

 (= |c:@F@main::$tmp::return_value$___VERIFIER_nondet_bool$1?10!0&0#1| |nondet$symex::nondet671|))

(assert 

 (= |c:@F@main::$tmp::return_value$___VERIFIER_nondet_bool$1?10!0&0#1| |c:trex02-1.c@542@F@main@c?10!0&0#1|))

(assert 

 (= |c:@x&0#39| 

  (bvadd #b11111111111111111111111111111111 |c:@x&0#38|)))

(assert 

 (= |c:@x&0#38| |c:@x&0#40|))

(assert 

 (= |c:@x&0#41| 

  (bvadd #b11111111111111111111111111111111 |c:@x&0#40|)))

(assert 

 (= |c:@x&0#42| 

  (ite 

   (= #b1 |c:trex02-1.c@542@F@main@c?10!0&0#1|) |c:@x&0#39| |c:@x&0#41|)))

(assert 

 (= |goto_symex::guard?0!0&0#11| 

  (ite 

   (bvslt #b00000000000000000000000000000000 |c:@x&0#42|) #b1 #b0)))

(assert 

 (= |c:@F@main::$tmp::return_value$___VERIFIER_nondet_bool$1?11!0&0#1| |nondet$symex::nondet672|))

(assert 

 (= |c:@F@main::$tmp::return_value$___VERIFIER_nondet_bool$1?11!0&0#1| |c:trex02-1.c@542@F@main@c?11!0&0#1|))

(assert 

 (= |c:@x&0#43| 

  (bvadd #b11111111111111111111111111111111 |c:@x&0#42|)))

(assert 

 (= |c:@x&0#42| |c:@x&0#44|))

(assert 

 (= |c:@x&0#45| 

  (bvadd #b11111111111111111111111111111111 |c:@x&0#44|)))

(assert 

 (= |c:@x&0#46| 

  (ite 

   (= #b1 |c:trex02-1.c@542@F@main@c?11!0&0#1|) |c:@x&0#43| |c:@x&0#45|)))

(assert 

 (= |goto_symex::guard?0!0&0#12| 

  (ite 

   (bvslt #b00000000000000000000000000000000 |c:@x&0#46|) #b1 #b0)))

(assert 

 (= |c:@F@main::$tmp::return_value$___VERIFIER_nondet_bool$1?12!0&0#1| |nondet$symex::nondet673|))

(assert 

 (= |c:@F@main::$tmp::return_value$___VERIFIER_nondet_bool$1?12!0&0#1| |c:trex02-1.c@542@F@main@c?12!0&0#1|))

(assert 

 (= |c:@x&0#47| 

  (bvadd #b11111111111111111111111111111111 |c:@x&0#46|)))

(assert 

 (= |c:@x&0#46| |c:@x&0#48|))

(assert 

 (= |c:@x&0#49| 

  (bvadd #b11111111111111111111111111111111 |c:@x&0#48|)))

(assert 

 (= |c:@x&0#50| 

  (ite 

   (= #b1 |c:trex02-1.c@542@F@main@c?12!0&0#1|) |c:@x&0#47| |c:@x&0#49|)))

(assert 

 (= |goto_symex::guard?0!0&0#13| 

  (ite 

   (bvslt #b00000000000000000000000000000000 |c:@x&0#50|) #b1 #b0)))

(assert 

 (= |c:@F@main::$tmp::return_value$___VERIFIER_nondet_bool$1?13!0&0#1| |nondet$symex::nondet674|))

(assert 

 (= |c:@F@main::$tmp::return_value$___VERIFIER_nondet_bool$1?13!0&0#1| |c:trex02-1.c@542@F@main@c?13!0&0#1|))

(assert 

 (= |c:@x&0#51| 

  (bvadd #b11111111111111111111111111111111 |c:@x&0#50|)))

(assert 

 (= |c:@x&0#50| |c:@x&0#52|))

(assert 

 (= |c:@x&0#53| 

  (bvadd #b11111111111111111111111111111111 |c:@x&0#52|)))

(assert 

 (= |c:@x&0#54| 

  (ite 

   (= #b1 |c:trex02-1.c@542@F@main@c?13!0&0#1|) |c:@x&0#51| |c:@x&0#53|)))

(assert 

 (= |goto_symex::guard?0!0&0#14| 

  (ite 

   (bvslt #b00000000000000000000000000000000 |c:@x&0#54|) #b1 #b0)))

(assert 

 (= |c:@F@main::$tmp::return_value$___VERIFIER_nondet_bool$1?14!0&0#1| |nondet$symex::nondet675|))

(assert 

 (= |c:@F@main::$tmp::return_value$___VERIFIER_nondet_bool$1?14!0&0#1| |c:trex02-1.c@542@F@main@c?14!0&0#1|))

(assert 

 (= |c:@x&0#55| 

  (bvadd #b11111111111111111111111111111111 |c:@x&0#54|)))

(assert 

 (= |c:@x&0#54| |c:@x&0#56|))

(assert 

 (= |c:@x&0#57| 

  (bvadd #b11111111111111111111111111111111 |c:@x&0#56|)))

(assert 

 (= |c:@x&0#58| 

  (ite 

   (= #b1 |c:trex02-1.c@542@F@main@c?14!0&0#1|) |c:@x&0#55| |c:@x&0#57|)))

(assert 

 (= |goto_symex::guard?0!0&0#15| 

  (ite 

   (bvslt #b00000000000000000000000000000000 |c:@x&0#58|) #b1 #b0)))

(assert 

 (= |c:@F@main::$tmp::return_value$___VERIFIER_nondet_bool$1?15!0&0#1| |nondet$symex::nondet676|))

(assert 

 (= |c:@F@main::$tmp::return_value$___VERIFIER_nondet_bool$1?15!0&0#1| |c:trex02-1.c@542@F@main@c?15!0&0#1|))

(assert 

 (= |c:@x&0#59| 

  (bvadd #b11111111111111111111111111111111 |c:@x&0#58|)))

(assert 

 (= |c:@x&0#58| |c:@x&0#60|))

(assert 

 (= |c:@x&0#61| 

  (bvadd #b11111111111111111111111111111111 |c:@x&0#60|)))

(assert 

 (= |c:@x&0#62| 

  (ite 

   (= #b1 |c:trex02-1.c@542@F@main@c?15!0&0#1|) |c:@x&0#59| |c:@x&0#61|)))

(assert 

 (= |goto_symex::guard?0!0&0#16| 

  (ite 

   (bvslt #b00000000000000000000000000000000 |c:@x&0#62|) #b1 #b0)))

(assert 

 (= |c:@F@main::$tmp::return_value$___VERIFIER_nondet_bool$1?16!0&0#1| |nondet$symex::nondet677|))

(assert 

 (= |c:@F@main::$tmp::return_value$___VERIFIER_nondet_bool$1?16!0&0#1| |c:trex02-1.c@542@F@main@c?16!0&0#1|))

(assert 

 (= |c:@x&0#63| 

  (bvadd #b11111111111111111111111111111111 |c:@x&0#62|)))

(assert 

 (= |c:@x&0#62| |c:@x&0#64|))

(assert 

 (= |c:@x&0#65| 

  (bvadd #b11111111111111111111111111111111 |c:@x&0#64|)))

(assert 

 (= |c:@x&0#66| 

  (ite 

   (= #b1 |c:trex02-1.c@542@F@main@c?16!0&0#1|) |c:@x&0#63| |c:@x&0#65|)))

(assert 

 (= |goto_symex::guard?0!0&0#17| 

  (ite 

   (bvslt #b00000000000000000000000000000000 |c:@x&0#66|) #b1 #b0)))

(assert 

 (= |c:@F@main::$tmp::return_value$___VERIFIER_nondet_bool$1?17!0&0#1| |nondet$symex::nondet678|))

(assert 

 (= |c:@F@main::$tmp::return_value$___VERIFIER_nondet_bool$1?17!0&0#1| |c:trex02-1.c@542@F@main@c?17!0&0#1|))

(assert 

 (= |c:@x&0#67| 

  (bvadd #b11111111111111111111111111111111 |c:@x&0#66|)))

(assert 

 (= |c:@x&0#66| |c:@x&0#68|))

(assert 

 (= |c:@x&0#69| 

  (bvadd #b11111111111111111111111111111111 |c:@x&0#68|)))

(assert 

 (= |c:@x&0#70| 

  (ite 

   (= #b1 |c:trex02-1.c@542@F@main@c?17!0&0#1|) |c:@x&0#67| |c:@x&0#69|)))

(assert 

 (= |goto_symex::guard?0!0&0#18| 

  (ite 

   (bvslt #b00000000000000000000000000000000 |c:@x&0#70|) #b1 #b0)))

(assert 

 (= |c:@F@main::$tmp::return_value$___VERIFIER_nondet_bool$1?18!0&0#1| |nondet$symex::nondet679|))

(assert 

 (= |c:@F@main::$tmp::return_value$___VERIFIER_nondet_bool$1?18!0&0#1| |c:trex02-1.c@542@F@main@c?18!0&0#1|))

(assert 

 (= |c:@x&0#71| 

  (bvadd #b11111111111111111111111111111111 |c:@x&0#70|)))

(assert 

 (= |c:@x&0#70| |c:@x&0#72|))

(assert 

 (= |c:@x&0#73| 

  (bvadd #b11111111111111111111111111111111 |c:@x&0#72|)))

(assert 

 (= |c:@x&0#74| 

  (ite 

   (= #b1 |c:trex02-1.c@542@F@main@c?18!0&0#1|) |c:@x&0#71| |c:@x&0#73|)))

(assert 

 (= |goto_symex::guard?0!0&0#19| 

  (ite 

   (bvslt #b00000000000000000000000000000000 |c:@x&0#74|) #b1 #b0)))

(assert 

 (= |c:@F@main::$tmp::return_value$___VERIFIER_nondet_bool$1?19!0&0#1| |nondet$symex::nondet680|))

(assert 

 (= |c:@F@main::$tmp::return_value$___VERIFIER_nondet_bool$1?19!0&0#1| |c:trex02-1.c@542@F@main@c?19!0&0#1|))

(assert 

 (= |c:@x&0#75| 

  (bvadd #b11111111111111111111111111111111 |c:@x&0#74|)))

(assert 

 (= |c:@x&0#74| |c:@x&0#76|))

(assert 

 (= |c:@x&0#77| 

  (bvadd #b11111111111111111111111111111111 |c:@x&0#76|)))

(assert 

 (= |c:@x&0#78| 

  (ite 

   (= #b1 |c:trex02-1.c@542@F@main@c?19!0&0#1|) |c:@x&0#75| |c:@x&0#77|)))

(assert 

 (= |goto_symex::guard?0!0&0#20| 

  (ite 

   (bvslt #b00000000000000000000000000000000 |c:@x&0#78|) #b1 #b0)))

(assert 

 (= |c:@x&0#78| |c:@x&0#83|))

(assert 

 (= |c:@x&0#84| 

  (ite 

   (= #b1 |goto_symex::guard?0!0&0#19|) |c:@x&0#83| |c:@x&0#74|)))

(assert 

 (= |c:@x&0#85| 

  (ite 

   (= #b1 |goto_symex::guard?0!0&0#18|) |c:@x&0#84| |c:@x&0#70|)))

(assert 

 (= |c:@x&0#86| 

  (ite 

   (= #b1 |goto_symex::guard?0!0&0#17|) |c:@x&0#85| |c:@x&0#66|)))

(assert 

 (= |c:@x&0#87| 

  (ite 

   (= #b1 |goto_symex::guard?0!0&0#16|) |c:@x&0#86| |c:@x&0#62|)))

(assert 

 (= |c:@x&0#88| 

  (ite 

   (= #b1 |goto_symex::guard?0!0&0#15|) |c:@x&0#87| |c:@x&0#58|)))

(assert 

 (= |c:@x&0#89| 

  (ite 

   (= #b1 |goto_symex::guard?0!0&0#14|) |c:@x&0#88| |c:@x&0#54|)))

(assert 

 (= |c:@x&0#90| 

  (ite 

   (= #b1 |goto_symex::guard?0!0&0#13|) |c:@x&0#89| |c:@x&0#50|)))

(assert 

 (= |c:@x&0#91| 

  (ite 

   (= #b1 |goto_symex::guard?0!0&0#12|) |c:@x&0#90| |c:@x&0#46|)))

(assert 

 (= |c:@x&0#92| 

  (ite 

   (= #b1 |goto_symex::guard?0!0&0#11|) |c:@x&0#91| |c:@x&0#42|)))

(assert 

 (= |c:@x&0#93| 

  (ite 

   (= #b1 |goto_symex::guard?0!0&0#10|) |c:@x&0#92| |c:@x&0#38|)))

(assert 

 (= |c:@x&0#94| 

  (ite 

   (= #b1 |goto_symex::guard?0!0&0#9|) |c:@x&0#93| |c:@x&0#34|)))

(assert 

 (= |c:@x&0#95| 

  (ite 

   (= #b1 |goto_symex::guard?0!0&0#8|) |c:@x&0#94| |c:@x&0#30|)))

(assert 

 (= |c:@x&0#96| 

  (ite 

   (= #b1 |goto_symex::guard?0!0&0#7|) |c:@x&0#95| |c:@x&0#26|)))

(assert 

 (= |c:@x&0#97| 

  (ite 

   (= #b1 |goto_symex::guard?0!0&0#6|) |c:@x&0#96| |c:@x&0#22|)))

(assert 

 (= |c:@x&0#98| 

  (ite 

   (= #b1 |goto_symex::guard?0!0&0#5|) |c:@x&0#97| |c:@x&0#18|)))

(assert 

 (= |c:@x&0#99| 

  (ite 

   (= #b1 |goto_symex::guard?0!0&0#4|) |c:@x&0#98| |c:@x&0#14|)))

(assert 

 (= |c:@x&0#100| 

  (ite 

   (= #b1 |goto_symex::guard?0!0&0#3|) |c:@x&0#99| |c:@x&0#10|)))

(assert 

 (= |c:@x&0#101| 

  (ite 

   (= #b1 |goto_symex::guard?0!0&0#2|) |c:@x&0#100| |c:@x&0#6|)))

(assert 

 (= |c:@x&0#102| 

  (ite 

   (= #b1 |goto_symex::guard?0!0&0#1|) |c:@x&0#101| |c:@x&0#2|)))

(assert 

 (= |c:trex02-1.c@279@F@__VERIFIER_assert@cond?1!0&0#1| 

  (ite 

   (bvslt #b00000000000000000000000000000000 |c:@x&0#102|) #b00000000000000000000000000000000 #b00000000000000000000000000000001)))

(assert 

 (= |goto_symex::guard?0!0&0#21| 

  (ite 

   (= #b00000000000000000000000000000000 |c:trex02-1.c@279@F@__VERIFIER_assert@cond?1!0&0#1|) #b1 #b0)))

(assert (= 

 (bvnot 

  (bvand 

   (bvand 

    (bvand 

     (bvand 

      (bvand 

       (bvand 

        (bvand 

         (bvand 

          (bvand 

           (bvand 

            (bvand 

             (bvand 

              (bvand 

               (bvand 

                (bvand 

                 (bvand 

                  (bvand 

                   (bvand 

                    (bvand |goto_symex::guard?0!0&0#1| |goto_symex::guard?0!0&0#2|) |goto_symex::guard?0!0&0#3|) |goto_symex::guard?0!0&0#4|) |goto_symex::guard?0!0&0#5|) |goto_symex::guard?0!0&0#6|) |goto_symex::guard?0!0&0#7|) |goto_symex::guard?0!0&0#8|) |goto_symex::guard?0!0&0#9|) |goto_symex::guard?0!0&0#10|) |goto_symex::guard?0!0&0#11|) |goto_symex::guard?0!0&0#12|) |goto_symex::guard?0!0&0#13|) |goto_symex::guard?0!0&0#14|) |goto_symex::guard?0!0&0#15|) |goto_symex::guard?0!0&0#16|) |goto_symex::guard?0!0&0#17|) |goto_symex::guard?0!0&0#18|) |goto_symex::guard?0!0&0#19|) |goto_symex::guard?0!0&0#20|)) #b1))

(assert (= |execution_statet::guard_exec?0!0| #b1))

(assert (= |goto_symex::guard?0!0&0#21| #b1))

(assert (= 

 (bvnot 

  (bvand |goto_symex::guard?0!0&0#1| 

   (bvand |goto_symex::guard?0!0&0#2| 

    (bvand |goto_symex::guard?0!0&0#3| 

     (bvand |goto_symex::guard?0!0&0#4| 

      (bvand |goto_symex::guard?0!0&0#5| 

       (bvand |goto_symex::guard?0!0&0#6| 

        (bvand |goto_symex::guard?0!0&0#7| 

         (bvand |goto_symex::guard?0!0&0#8| 

          (bvand |goto_symex::guard?0!0&0#9| 

           (bvand |goto_symex::guard?0!0&0#10| 

            (bvand |goto_symex::guard?0!0&0#11| 

             (bvand |goto_symex::guard?0!0&0#12| 

              (bvand |goto_symex::guard?0!0&0#13| 

               (bvand |goto_symex::guard?0!0&0#14| 

                (bvand |goto_symex::guard?0!0&0#15| 

                 (bvand |goto_symex::guard?0!0&0#16| 

                  (bvand |goto_symex::guard?0!0&0#17| 

                   (bvand |goto_symex::guard?0!0&0#18| 

                    (bvand |goto_symex::guard?0!0&0#19| |goto_symex::guard?0!0&0#20|)))))))))))))))))))) #b1))

(check-sat)

(exit)
